3
4
40
1 1.3 1.55 1.75 2.1
45 28 45 7 37 46 21 16 27 39 33 10 22 7 16 36 22 18 18 12 39 29 10 34 23 21 18 23 40 6 24 32 31 25 30 5 27 37 25 26 47 32 13 21 38 32 14 9 45 6 38 43 49 38 24 39 38 31 37 24 36 35 18 33 26 42 44 44 8 18 6 33 21 8 28 5 15 35 29 12 8 5 42 44 5 49 23 29 25 25 44 21 25 5 18 21 22 18 11 16 36 13 8 21 10 23 21 16 47 24 35 10 23 39 12 35 31 40 27 28 13 19 44 35 22 15 18 10 46 16 30 21 41 30 17 13 12 29 27 42 49 16 39 5 34 37 28 23 33 15 36 8 34 14 9 17 26 22 40 11 